50
    1    50    48
    2    30    34
    3     1     6
    4    27    25
    5     7     2
    6    22    22
    7    23    21
    8    37    38
    9    44    41
   10    16    20
   11    15    12
   12    34    31
   13    31    32
   14    25    22
   15    31    27
   16    35    33
   17    17    19
   18     1     2
   19    11     7
   20    33    30
   21     2     1
   22    23    28
   23    33    32
   24    11    11
   25    10     7
   26    13     8
   27    18    16
   28    33    30
   29    18    18
   30     2     5
   31    41    36
   32    28    32
   33    11    10
   34    18    17
   35    47    50
   36    39    43
   37     5     8
   38    18    13
   39     7     2
   40    46    49
   41    33    31
   42    19    16
   43    43    40
   44    11    10
   45    27    23
   46    15    13
   47    40    44
   48    27    26
   49    32    37
   50    12    12
312
